34373 45406
60902 16193
9813 31104
49787 3441
46659 62887
64686 14711
46656 59682
36594 19238
21914 35971
60526 61169
49174 18545
50703 31270
65496 43819
38857 53672
6995 712
49598 1490
21719 11746
28468 9370
